pair_coeff  1  1 lj/cut/coul/long 0.0152 2.846421
pair_coeff 1 2 lj/cut/coul/long 0.00123288 2.846421
pair_coeff  2  2 lj/cut/coul/long 0.0001 2.846421
pair_coeff 1 43 lj/cut/coul/long 0.0152 2.846421
pair_coeff 2 43 lj/cut/coul/long 0.00123288 2.846421
pair_coeff  43  43 lj/cut/coul/long 0.0152 2.846421
pair_coeff 1 47 lj/cut/coul/long 0.038 3.213967
pair_coeff 1 45 lj/cut/coul/long 0.038 3.213967
pair_coeff 1 50 lj/cut/coul/long 0.038 3.213967
pair_coeff 1 44 lj/cut/coul/long 0.038 3.213967
pair_coeff 1 54 lj/cut/coul/long 0.038 3.213967
pair_coeff 1 46 lj/cut/coul/long 0.038 3.213967
pair_coeff 1 49 lj/cut/coul/long 0.038 3.213967
pair_coeff 1 48 lj/cut/coul/long 0.038 3.213967
pair_coeff 2 47 lj/cut/coul/long 0.00308221 3.213967
pair_coeff 2 45 lj/cut/coul/long 0.00308221 3.213967
pair_coeff 2 50 lj/cut/coul/long 0.00308221 3.213967
pair_coeff 2 44 lj/cut/coul/long 0.00308221 3.213967
pair_coeff 2 54 lj/cut/coul/long 0.00308221 3.213967
pair_coeff 2 46 lj/cut/coul/long 0.00308221 3.213967
pair_coeff 2 49 lj/cut/coul/long 0.00308221 3.213967
pair_coeff 2 48 lj/cut/coul/long 0.00308221 3.213967
pair_coeff 43 47 lj/cut/coul/long 0.038 3.213967
pair_coeff 43 45 lj/cut/coul/long 0.038 3.213967
pair_coeff 43 50 lj/cut/coul/long 0.038 3.213967
pair_coeff 43 44 lj/cut/coul/long 0.038 3.213967
pair_coeff 43 54 lj/cut/coul/long 0.038 3.213967
pair_coeff 43 46 lj/cut/coul/long 0.038 3.213967
pair_coeff 43 49 lj/cut/coul/long 0.038 3.213967
pair_coeff 43 48 lj/cut/coul/long 0.038 3.213967
pair_coeff  47  47 lj/cut/coul/long 0.095 3.581513
pair_coeff 45 47 lj/cut/coul/long 0.095 3.581513
pair_coeff  47  50 lj/cut/coul/long 0.095 3.581513
pair_coeff 44 47 lj/cut/coul/long 0.095 3.581513
pair_coeff  47  54 lj/cut/coul/long 0.095 3.581513
pair_coeff 46 47 lj/cut/coul/long 0.095 3.581513
pair_coeff  47  49 lj/cut/coul/long 0.095 3.581513
pair_coeff  47  48 lj/cut/coul/long 0.095 3.581513
pair_coeff  45  47 lj/cut/coul/long 0.095 3.581513
pair_coeff  45  45 lj/cut/coul/long 0.095 3.581513
pair_coeff  45  50 lj/cut/coul/long 0.095 3.581513
pair_coeff 44 45 lj/cut/coul/long 0.095 3.581513
pair_coeff  45  54 lj/cut/coul/long 0.095 3.581513
pair_coeff  45  46 lj/cut/coul/long 0.095 3.581513
pair_coeff  45  49 lj/cut/coul/long 0.095 3.581513
pair_coeff  45  48 lj/cut/coul/long 0.095 3.581513
pair_coeff 47 50 lj/cut/coul/long 0.095 3.581513
pair_coeff 45 50 lj/cut/coul/long 0.095 3.581513
pair_coeff  50  50 lj/cut/coul/long 0.095 3.581513
pair_coeff 44 50 lj/cut/coul/long 0.095 3.581513
pair_coeff  50  54 lj/cut/coul/long 0.095 3.581513
pair_coeff 46 50 lj/cut/coul/long 0.095 3.581513
pair_coeff 49 50 lj/cut/coul/long 0.095 3.581513
pair_coeff 48 50 lj/cut/coul/long 0.095 3.581513
pair_coeff  44  47 lj/cut/coul/long 0.095 3.581513
pair_coeff  44  45 lj/cut/coul/long 0.095 3.581513
pair_coeff  44  50 lj/cut/coul/long 0.095 3.581513
pair_coeff  44  44 lj/cut/coul/long 0.095 3.581513
pair_coeff  44  54 lj/cut/coul/long 0.095 3.581513
pair_coeff  44  46 lj/cut/coul/long 0.095 3.581513
pair_coeff  44  49 lj/cut/coul/long 0.095 3.581513
pair_coeff  44  48 lj/cut/coul/long 0.095 3.581513
pair_coeff 47 54 lj/cut/coul/long 0.095 3.581513
pair_coeff 45 54 lj/cut/coul/long 0.095 3.581513
pair_coeff 50 54 lj/cut/coul/long 0.095 3.581513
pair_coeff 44 54 lj/cut/coul/long 0.095 3.581513
pair_coeff  54  54 lj/cut/coul/long 0.095 3.581513
pair_coeff 46 54 lj/cut/coul/long 0.095 3.581513
pair_coeff 49 54 lj/cut/coul/long 0.095 3.581513
pair_coeff 48 54 lj/cut/coul/long 0.095 3.581513
pair_coeff  46  47 lj/cut/coul/long 0.095 3.581513
pair_coeff 45 46 lj/cut/coul/long 0.095 3.581513
pair_coeff  46  50 lj/cut/coul/long 0.095 3.581513
pair_coeff 44 46 lj/cut/coul/long 0.095 3.581513
pair_coeff  46  54 lj/cut/coul/long 0.095 3.581513
pair_coeff  46  46 lj/cut/coul/long 0.095 3.581513
pair_coeff  46  49 lj/cut/coul/long 0.095 3.581513
pair_coeff  46  48 lj/cut/coul/long 0.095 3.581513
pair_coeff 47 49 lj/cut/coul/long 0.095 3.581513
pair_coeff 45 49 lj/cut/coul/long 0.095 3.581513
pair_coeff  49  50 lj/cut/coul/long 0.095 3.581513
pair_coeff 44 49 lj/cut/coul/long 0.095 3.581513
pair_coeff  49  54 lj/cut/coul/long 0.095 3.581513
pair_coeff 46 49 lj/cut/coul/long 0.095 3.581513
pair_coeff  49  49 lj/cut/coul/long 0.095 3.581513
pair_coeff 48 49 lj/cut/coul/long 0.095 3.581513
pair_coeff 47 48 lj/cut/coul/long 0.095 3.581513
pair_coeff 45 48 lj/cut/coul/long 0.095 3.581513
pair_coeff  48  50 lj/cut/coul/long 0.095 3.581513
pair_coeff 44 48 lj/cut/coul/long 0.095 3.581513
pair_coeff  48  54 lj/cut/coul/long 0.095 3.581513
pair_coeff 46 48 lj/cut/coul/long 0.095 3.581513
pair_coeff  48  49 lj/cut/coul/long 0.095 3.581513
pair_coeff  48  48 lj/cut/coul/long 0.095 3.581513
pair_coeff 1 16 lj/cut/coul/long 0.03801999 3.1597055
pair_coeff 1 14 lj/cut/coul/long 0.03801999 3.1597055
pair_coeff 1 5 lj/cut/coul/long 0.03801999 3.1597055
pair_coeff 1 3 lj/cut/coul/long 0.03801999 3.1597055
pair_coeff 1 8 lj/cut/coul/long 0.03801999 3.1597055
pair_coeff 1 6 lj/cut/coul/long 0.03801999 3.1597055
pair_coeff 1 12 lj/cut/coul/long 0.03801999 3.1597055
pair_coeff 1 10 lj/cut/coul/long 0.03801999 3.1597055
pair_coeff 1 15 lj/cut/coul/long 0.03801999 3.1597055
pair_coeff 1 87 lj/cut/coul/long 0.03801999 3.1597055
pair_coeff 1 53 lj/cut/coul/long 0.03801999 3.1597055
pair_coeff 1 13 lj/cut/coul/long 0.03801999 3.1597055
pair_coeff 1 11 lj/cut/coul/long 0.03801999 3.1597055
pair_coeff 1 7 lj/cut/coul/long 0.03801999 3.1597055
pair_coeff 1 9 lj/cut/coul/long 0.03801999 3.1597055
pair_coeff 1 4 lj/cut/coul/long 0.03801999 3.1597055
pair_coeff 2 16 lj/cut/coul/long 0.00308383 3.1597055
pair_coeff 2 14 lj/cut/coul/long 0.00308383 3.1597055
pair_coeff 2 5 lj/cut/coul/long 0.00308383 3.1597055
pair_coeff 2 3 lj/cut/coul/long 0.00308383 3.1597055
pair_coeff 2 8 lj/cut/coul/long 0.00308383 3.1597055
pair_coeff 2 6 lj/cut/coul/long 0.00308383 3.1597055
pair_coeff 2 12 lj/cut/coul/long 0.00308383 3.1597055
pair_coeff 2 10 lj/cut/coul/long 0.00308383 3.1597055
pair_coeff 2 15 lj/cut/coul/long 0.00308383 3.1597055
pair_coeff 2 87 lj/cut/coul/long 0.00308383 3.1597055
pair_coeff 2 53 lj/cut/coul/long 0.00308383 3.1597055
pair_coeff 2 13 lj/cut/coul/long 0.00308383 3.1597055
pair_coeff 2 11 lj/cut/coul/long 0.00308383 3.1597055
pair_coeff 2 7 lj/cut/coul/long 0.00308383 3.1597055
pair_coeff 2 9 lj/cut/coul/long 0.00308383 3.1597055
pair_coeff 2 4 lj/cut/coul/long 0.00308383 3.1597055
pair_coeff  16  43 lj/cut/coul/long 0.03801999 3.1597055
pair_coeff  14  43 lj/cut/coul/long 0.03801999 3.1597055
pair_coeff  5  43 lj/cut/coul/long 0.03801999 3.1597055
pair_coeff  3  43 lj/cut/coul/long 0.03801999 3.1597055
pair_coeff  8  43 lj/cut/coul/long 0.03801999 3.1597055
pair_coeff  6  43 lj/cut/coul/long 0.03801999 3.1597055
pair_coeff  12  43 lj/cut/coul/long 0.03801999 3.1597055
pair_coeff  10  43 lj/cut/coul/long 0.03801999 3.1597055
pair_coeff  15  43 lj/cut/coul/long 0.03801999 3.1597055
pair_coeff 43 87 lj/cut/coul/long 0.03801999 3.1597055
pair_coeff 43 53 lj/cut/coul/long 0.03801999 3.1597055
pair_coeff  13  43 lj/cut/coul/long 0.03801999 3.1597055
pair_coeff  11  43 lj/cut/coul/long 0.03801999 3.1597055
pair_coeff  7  43 lj/cut/coul/long 0.03801999 3.1597055
pair_coeff  9  43 lj/cut/coul/long 0.03801999 3.1597055
pair_coeff  4  43 lj/cut/coul/long 0.03801999 3.1597055
pair_coeff  16  47 lj/cut/coul/long 0.09504999 3.5272515
pair_coeff  16  45 lj/cut/coul/long 0.09504999 3.5272515
pair_coeff  16  50 lj/cut/coul/long 0.09504999 3.5272515
pair_coeff  16  44 lj/cut/coul/long 0.09504999 3.5272515
pair_coeff  16  54 lj/cut/coul/long 0.09504999 3.5272515
pair_coeff  16  46 lj/cut/coul/long 0.09504999 3.5272515
pair_coeff  16  49 lj/cut/coul/long 0.09504999 3.5272515
pair_coeff  16  48 lj/cut/coul/long 0.09504999 3.5272515
pair_coeff  14  47 lj/cut/coul/long 0.09504999 3.5272515
pair_coeff  14  45 lj/cut/coul/long 0.09504999 3.5272515
pair_coeff  14  50 lj/cut/coul/long 0.09504999 3.5272515
pair_coeff  14  44 lj/cut/coul/long 0.09504999 3.5272515
pair_coeff  14  54 lj/cut/coul/long 0.09504999 3.5272515
pair_coeff  14  46 lj/cut/coul/long 0.09504999 3.5272515
pair_coeff  14  49 lj/cut/coul/long 0.09504999 3.5272515
pair_coeff  14  48 lj/cut/coul/long 0.09504999 3.5272515
pair_coeff  5  47 lj/cut/coul/long 0.09504999 3.5272515
pair_coeff  5  45 lj/cut/coul/long 0.09504999 3.5272515
pair_coeff  5  50 lj/cut/coul/long 0.09504999 3.5272515
pair_coeff  5  44 lj/cut/coul/long 0.09504999 3.5272515
pair_coeff  5  54 lj/cut/coul/long 0.09504999 3.5272515
pair_coeff  5  46 lj/cut/coul/long 0.09504999 3.5272515
pair_coeff  5  49 lj/cut/coul/long 0.09504999 3.5272515
pair_coeff  5  48 lj/cut/coul/long 0.09504999 3.5272515
pair_coeff  3  47 lj/cut/coul/long 0.09504999 3.5272515
pair_coeff  3  45 lj/cut/coul/long 0.09504999 3.5272515
pair_coeff  3  50 lj/cut/coul/long 0.09504999 3.5272515
pair_coeff  3  44 lj/cut/coul/long 0.09504999 3.5272515
pair_coeff  3  54 lj/cut/coul/long 0.09504999 3.5272515
pair_coeff  3  46 lj/cut/coul/long 0.09504999 3.5272515
pair_coeff  3  49 lj/cut/coul/long 0.09504999 3.5272515
pair_coeff  3  48 lj/cut/coul/long 0.09504999 3.5272515
pair_coeff  8  47 lj/cut/coul/long 0.09504999 3.5272515
pair_coeff  8  45 lj/cut/coul/long 0.09504999 3.5272515
pair_coeff  8  50 lj/cut/coul/long 0.09504999 3.5272515
pair_coeff  8  44 lj/cut/coul/long 0.09504999 3.5272515
pair_coeff  8  54 lj/cut/coul/long 0.09504999 3.5272515
pair_coeff  8  46 lj/cut/coul/long 0.09504999 3.5272515
pair_coeff  8  49 lj/cut/coul/long 0.09504999 3.5272515
pair_coeff  8  48 lj/cut/coul/long 0.09504999 3.5272515
pair_coeff  6  47 lj/cut/coul/long 0.09504999 3.5272515
pair_coeff  6  45 lj/cut/coul/long 0.09504999 3.5272515
pair_coeff  6  50 lj/cut/coul/long 0.09504999 3.5272515
pair_coeff  6  44 lj/cut/coul/long 0.09504999 3.5272515
pair_coeff  6  54 lj/cut/coul/long 0.09504999 3.5272515
pair_coeff  6  46 lj/cut/coul/long 0.09504999 3.5272515
pair_coeff  6  49 lj/cut/coul/long 0.09504999 3.5272515
pair_coeff  6  48 lj/cut/coul/long 0.09504999 3.5272515
pair_coeff  12  47 lj/cut/coul/long 0.09504999 3.5272515
pair_coeff  12  45 lj/cut/coul/long 0.09504999 3.5272515
pair_coeff  12  50 lj/cut/coul/long 0.09504999 3.5272515
pair_coeff  12  44 lj/cut/coul/long 0.09504999 3.5272515
pair_coeff  12  54 lj/cut/coul/long 0.09504999 3.5272515
pair_coeff  12  46 lj/cut/coul/long 0.09504999 3.5272515
pair_coeff  12  49 lj/cut/coul/long 0.09504999 3.5272515
pair_coeff  12  48 lj/cut/coul/long 0.09504999 3.5272515
pair_coeff  10  47 lj/cut/coul/long 0.09504999 3.5272515
pair_coeff  10  45 lj/cut/coul/long 0.09504999 3.5272515
pair_coeff  10  50 lj/cut/coul/long 0.09504999 3.5272515
pair_coeff  10  44 lj/cut/coul/long 0.09504999 3.5272515
pair_coeff  10  54 lj/cut/coul/long 0.09504999 3.5272515
pair_coeff  10  46 lj/cut/coul/long 0.09504999 3.5272515
pair_coeff  10  49 lj/cut/coul/long 0.09504999 3.5272515
pair_coeff  10  48 lj/cut/coul/long 0.09504999 3.5272515
pair_coeff  15  47 lj/cut/coul/long 0.09504999 3.5272515
pair_coeff  15  45 lj/cut/coul/long 0.09504999 3.5272515
pair_coeff  15  50 lj/cut/coul/long 0.09504999 3.5272515
pair_coeff  15  44 lj/cut/coul/long 0.09504999 3.5272515
pair_coeff  15  54 lj/cut/coul/long 0.09504999 3.5272515
pair_coeff  15  46 lj/cut/coul/long 0.09504999 3.5272515
pair_coeff  15  49 lj/cut/coul/long 0.09504999 3.5272515
pair_coeff  15  48 lj/cut/coul/long 0.09504999 3.5272515
pair_coeff 47 87 lj/cut/coul/long 0.09504999 3.5272515
pair_coeff 45 87 lj/cut/coul/long 0.09504999 3.5272515
pair_coeff 50 87 lj/cut/coul/long 0.09504999 3.5272515
pair_coeff 44 87 lj/cut/coul/long 0.09504999 3.5272515
pair_coeff 54 87 lj/cut/coul/long 0.09504999 3.5272515
pair_coeff 46 87 lj/cut/coul/long 0.09504999 3.5272515
pair_coeff 49 87 lj/cut/coul/long 0.09504999 3.5272515
pair_coeff 48 87 lj/cut/coul/long 0.09504999 3.5272515
pair_coeff 47 53 lj/cut/coul/long 0.09504999 3.5272515
pair_coeff 45 53 lj/cut/coul/long 0.09504999 3.5272515
pair_coeff 50 53 lj/cut/coul/long 0.09504999 3.5272515
pair_coeff 44 53 lj/cut/coul/long 0.09504999 3.5272515
pair_coeff  53  54 lj/cut/coul/long 0.09504999 3.5272515
pair_coeff 46 53 lj/cut/coul/long 0.09504999 3.5272515
pair_coeff 49 53 lj/cut/coul/long 0.09504999 3.5272515
pair_coeff 48 53 lj/cut/coul/long 0.09504999 3.5272515
pair_coeff  13  47 lj/cut/coul/long 0.09504999 3.5272515
pair_coeff  13  45 lj/cut/coul/long 0.09504999 3.5272515
pair_coeff  13  50 lj/cut/coul/long 0.09504999 3.5272515
pair_coeff  13  44 lj/cut/coul/long 0.09504999 3.5272515
pair_coeff  13  54 lj/cut/coul/long 0.09504999 3.5272515
pair_coeff  13  46 lj/cut/coul/long 0.09504999 3.5272515
pair_coeff  13  49 lj/cut/coul/long 0.09504999 3.5272515
pair_coeff  13  48 lj/cut/coul/long 0.09504999 3.5272515
pair_coeff  11  47 lj/cut/coul/long 0.09504999 3.5272515
pair_coeff  11  45 lj/cut/coul/long 0.09504999 3.5272515
pair_coeff  11  50 lj/cut/coul/long 0.09504999 3.5272515
pair_coeff  11  44 lj/cut/coul/long 0.09504999 3.5272515
pair_coeff  11  54 lj/cut/coul/long 0.09504999 3.5272515
pair_coeff  11  46 lj/cut/coul/long 0.09504999 3.5272515
pair_coeff  11  49 lj/cut/coul/long 0.09504999 3.5272515
pair_coeff  11  48 lj/cut/coul/long 0.09504999 3.5272515
pair_coeff  7  47 lj/cut/coul/long 0.09504999 3.5272515
pair_coeff  7  45 lj/cut/coul/long 0.09504999 3.5272515
pair_coeff  7  50 lj/cut/coul/long 0.09504999 3.5272515
pair_coeff  7  44 lj/cut/coul/long 0.09504999 3.5272515
pair_coeff  7  54 lj/cut/coul/long 0.09504999 3.5272515
pair_coeff  7  46 lj/cut/coul/long 0.09504999 3.5272515
pair_coeff  7  49 lj/cut/coul/long 0.09504999 3.5272515
pair_coeff  7  48 lj/cut/coul/long 0.09504999 3.5272515
pair_coeff  9  47 lj/cut/coul/long 0.09504999 3.5272515
pair_coeff  9  45 lj/cut/coul/long 0.09504999 3.5272515
pair_coeff  9  50 lj/cut/coul/long 0.09504999 3.5272515
pair_coeff  9  44 lj/cut/coul/long 0.09504999 3.5272515
pair_coeff  9  54 lj/cut/coul/long 0.09504999 3.5272515
pair_coeff  9  46 lj/cut/coul/long 0.09504999 3.5272515
pair_coeff  9  49 lj/cut/coul/long 0.09504999 3.5272515
pair_coeff  9  48 lj/cut/coul/long 0.09504999 3.5272515
pair_coeff  4  47 lj/cut/coul/long 0.09504999 3.5272515
pair_coeff  4  45 lj/cut/coul/long 0.09504999 3.5272515
pair_coeff  4  50 lj/cut/coul/long 0.09504999 3.5272515
pair_coeff  4  44 lj/cut/coul/long 0.09504999 3.5272515
pair_coeff  4  54 lj/cut/coul/long 0.09504999 3.5272515
pair_coeff  4  46 lj/cut/coul/long 0.09504999 3.5272515
pair_coeff  4  49 lj/cut/coul/long 0.09504999 3.5272515
pair_coeff  4  48 lj/cut/coul/long 0.09504999 3.5272515
pair_coeff  16  16 lj/cut/coul/long 0.0951 3.47299
pair_coeff 14 16 lj/cut/coul/long 0.0951 3.47299
pair_coeff 5 16 lj/cut/coul/long 0.0951 3.47299
pair_coeff 3 16 lj/cut/coul/long 0.0951 3.47299
pair_coeff 8 16 lj/cut/coul/long 0.0951 3.47299
pair_coeff 6 16 lj/cut/coul/long 0.0951 3.47299
pair_coeff 12 16 lj/cut/coul/long 0.0951 3.47299
pair_coeff 10 16 lj/cut/coul/long 0.0951 3.47299
pair_coeff 15 16 lj/cut/coul/long 0.0951 3.47299
pair_coeff  16  87 lj/cut/coul/long 0.0951 3.47299
pair_coeff  16  53 lj/cut/coul/long 0.0951 3.47299
pair_coeff 13 16 lj/cut/coul/long 0.0951 3.47299
pair_coeff 11 16 lj/cut/coul/long 0.0951 3.47299
pair_coeff 7 16 lj/cut/coul/long 0.0951 3.47299
pair_coeff 9 16 lj/cut/coul/long 0.0951 3.47299
pair_coeff 4 16 lj/cut/coul/long 0.0951 3.47299
pair_coeff  14  16 lj/cut/coul/long 0.0951 3.47299
pair_coeff  14  14 lj/cut/coul/long 0.0951 3.47299
pair_coeff 5 14 lj/cut/coul/long 0.0951 3.47299
pair_coeff 3 14 lj/cut/coul/long 0.0951 3.47299
pair_coeff 8 14 lj/cut/coul/long 0.0951 3.47299
pair_coeff 6 14 lj/cut/coul/long 0.0951 3.47299
pair_coeff 12 14 lj/cut/coul/long 0.0951 3.47299
pair_coeff 10 14 lj/cut/coul/long 0.0951 3.47299
pair_coeff  14  15 lj/cut/coul/long 0.0951 3.47299
pair_coeff  14  87 lj/cut/coul/long 0.0951 3.47299
pair_coeff  14  53 lj/cut/coul/long 0.0951 3.47299
pair_coeff 13 14 lj/cut/coul/long 0.0951 3.47299
pair_coeff 11 14 lj/cut/coul/long 0.0951 3.47299
pair_coeff 7 14 lj/cut/coul/long 0.0951 3.47299
pair_coeff 9 14 lj/cut/coul/long 0.0951 3.47299
pair_coeff 4 14 lj/cut/coul/long 0.0951 3.47299
pair_coeff  5  16 lj/cut/coul/long 0.0951 3.47299
pair_coeff  5  14 lj/cut/coul/long 0.0951 3.47299
pair_coeff  5  5 lj/cut/coul/long 0.0951 3.47299
pair_coeff 3 5 lj/cut/coul/long 0.0951 3.47299
pair_coeff  5  8 lj/cut/coul/long 0.0951 3.47299
pair_coeff  5  6 lj/cut/coul/long 0.0951 3.47299
pair_coeff  5  12 lj/cut/coul/long 0.0951 3.47299
pair_coeff  5  10 lj/cut/coul/long 0.0951 3.47299
pair_coeff  5  15 lj/cut/coul/long 0.0951 3.47299
pair_coeff  5  87 lj/cut/coul/long 0.0951 3.47299
pair_coeff  5  53 lj/cut/coul/long 0.0951 3.47299
pair_coeff  5  13 lj/cut/coul/long 0.0951 3.47299
pair_coeff  5  11 lj/cut/coul/long 0.0951 3.47299
pair_coeff  5  7 lj/cut/coul/long 0.0951 3.47299
pair_coeff  5  9 lj/cut/coul/long 0.0951 3.47299
pair_coeff 4 5 lj/cut/coul/long 0.0951 3.47299
pair_coeff  3  16 lj/cut/coul/long 0.0951 3.47299
pair_coeff  3  14 lj/cut/coul/long 0.0951 3.47299
pair_coeff  3  5 lj/cut/coul/long 0.0951 3.47299
pair_coeff  3  3 lj/cut/coul/long 0.0951 3.47299
pair_coeff  3  8 lj/cut/coul/long 0.0951 3.47299
pair_coeff  3  6 lj/cut/coul/long 0.0951 3.47299
pair_coeff  3  12 lj/cut/coul/long 0.0951 3.47299
pair_coeff  3  10 lj/cut/coul/long 0.0951 3.47299
pair_coeff  3  15 lj/cut/coul/long 0.0951 3.47299
pair_coeff  3  87 lj/cut/coul/long 0.0951 3.47299
pair_coeff  3  53 lj/cut/coul/long 0.0951 3.47299
pair_coeff  3  13 lj/cut/coul/long 0.0951 3.47299
pair_coeff  3  11 lj/cut/coul/long 0.0951 3.47299
pair_coeff  3  7 lj/cut/coul/long 0.0951 3.47299
pair_coeff  3  9 lj/cut/coul/long 0.0951 3.47299
pair_coeff  3  4 lj/cut/coul/long 0.0951 3.47299
pair_coeff  8  16 lj/cut/coul/long 0.0951 3.47299
pair_coeff  8  14 lj/cut/coul/long 0.0951 3.47299
pair_coeff 5 8 lj/cut/coul/long 0.0951 3.47299
pair_coeff 3 8 lj/cut/coul/long 0.0951 3.47299
pair_coeff  8  8 lj/cut/coul/long 0.0951 3.47299
pair_coeff 6 8 lj/cut/coul/long 0.0951 3.47299
pair_coeff  8  12 lj/cut/coul/long 0.0951 3.47299
pair_coeff  8  10 lj/cut/coul/long 0.0951 3.47299
pair_coeff  8  15 lj/cut/coul/long 0.0951 3.47299
pair_coeff  8  87 lj/cut/coul/long 0.0951 3.47299
pair_coeff  8  53 lj/cut/coul/long 0.0951 3.47299
pair_coeff  8  13 lj/cut/coul/long 0.0951 3.47299
pair_coeff  8  11 lj/cut/coul/long 0.0951 3.47299
pair_coeff 7 8 lj/cut/coul/long 0.0951 3.47299
pair_coeff  8  9 lj/cut/coul/long 0.0951 3.47299
pair_coeff 4 8 lj/cut/coul/long 0.0951 3.47299
pair_coeff  6  16 lj/cut/coul/long 0.0951 3.47299
pair_coeff  6  14 lj/cut/coul/long 0.0951 3.47299
pair_coeff 5 6 lj/cut/coul/long 0.0951 3.47299
pair_coeff 3 6 lj/cut/coul/long 0.0951 3.47299
pair_coeff  6  8 lj/cut/coul/long 0.0951 3.47299
pair_coeff  6  6 lj/cut/coul/long 0.0951 3.47299
pair_coeff  6  12 lj/cut/coul/long 0.0951 3.47299
pair_coeff  6  10 lj/cut/coul/long 0.0951 3.47299
pair_coeff  6  15 lj/cut/coul/long 0.0951 3.47299
pair_coeff  6  87 lj/cut/coul/long 0.0951 3.47299
pair_coeff  6  53 lj/cut/coul/long 0.0951 3.47299
pair_coeff  6  13 lj/cut/coul/long 0.0951 3.47299
pair_coeff  6  11 lj/cut/coul/long 0.0951 3.47299
pair_coeff  6  7 lj/cut/coul/long 0.0951 3.47299
pair_coeff  6  9 lj/cut/coul/long 0.0951 3.47299
pair_coeff 4 6 lj/cut/coul/long 0.0951 3.47299
pair_coeff  12  16 lj/cut/coul/long 0.0951 3.47299
pair_coeff  12  14 lj/cut/coul/long 0.0951 3.47299
pair_coeff 5 12 lj/cut/coul/long 0.0951 3.47299
pair_coeff 3 12 lj/cut/coul/long 0.0951 3.47299
pair_coeff 8 12 lj/cut/coul/long 0.0951 3.47299
pair_coeff 6 12 lj/cut/coul/long 0.0951 3.47299
pair_coeff  12  12 lj/cut/coul/long 0.0951 3.47299
pair_coeff 10 12 lj/cut/coul/long 0.0951 3.47299
pair_coeff  12  15 lj/cut/coul/long 0.0951 3.47299
pair_coeff  12  87 lj/cut/coul/long 0.0951 3.47299
pair_coeff  12  53 lj/cut/coul/long 0.0951 3.47299
pair_coeff  12  13 lj/cut/coul/long 0.0951 3.47299
pair_coeff 11 12 lj/cut/coul/long 0.0951 3.47299
pair_coeff 7 12 lj/cut/coul/long 0.0951 3.47299
pair_coeff 9 12 lj/cut/coul/long 0.0951 3.47299
pair_coeff 4 12 lj/cut/coul/long 0.0951 3.47299
pair_coeff  10  16 lj/cut/coul/long 0.0951 3.47299
pair_coeff  10  14 lj/cut/coul/long 0.0951 3.47299
pair_coeff 5 10 lj/cut/coul/long 0.0951 3.47299
pair_coeff 3 10 lj/cut/coul/long 0.0951 3.47299
pair_coeff 8 10 lj/cut/coul/long 0.0951 3.47299
pair_coeff 6 10 lj/cut/coul/long 0.0951 3.47299
pair_coeff  10  12 lj/cut/coul/long 0.0951 3.47299
pair_coeff  10  10 lj/cut/coul/long 0.0951 3.47299
pair_coeff  10  15 lj/cut/coul/long 0.0951 3.47299
pair_coeff  10  87 lj/cut/coul/long 0.0951 3.47299
pair_coeff  10  53 lj/cut/coul/long 0.0951 3.47299
pair_coeff  10  13 lj/cut/coul/long 0.0951 3.47299
pair_coeff  10  11 lj/cut/coul/long 0.0951 3.47299
pair_coeff 7 10 lj/cut/coul/long 0.0951 3.47299
pair_coeff 9 10 lj/cut/coul/long 0.0951 3.47299
pair_coeff 4 10 lj/cut/coul/long 0.0951 3.47299
pair_coeff  15  16 lj/cut/coul/long 0.0951 3.47299
pair_coeff 14 15 lj/cut/coul/long 0.0951 3.47299
pair_coeff 5 15 lj/cut/coul/long 0.0951 3.47299
pair_coeff 3 15 lj/cut/coul/long 0.0951 3.47299
pair_coeff 8 15 lj/cut/coul/long 0.0951 3.47299
pair_coeff 6 15 lj/cut/coul/long 0.0951 3.47299
pair_coeff 12 15 lj/cut/coul/long 0.0951 3.47299
pair_coeff 10 15 lj/cut/coul/long 0.0951 3.47299
pair_coeff  15  15 lj/cut/coul/long 0.0951 3.47299
pair_coeff  15  87 lj/cut/coul/long 0.0951 3.47299
pair_coeff  15  53 lj/cut/coul/long 0.0951 3.47299
pair_coeff 13 15 lj/cut/coul/long 0.0951 3.47299
pair_coeff 11 15 lj/cut/coul/long 0.0951 3.47299
pair_coeff 7 15 lj/cut/coul/long 0.0951 3.47299
pair_coeff 9 15 lj/cut/coul/long 0.0951 3.47299
pair_coeff 4 15 lj/cut/coul/long 0.0951 3.47299
pair_coeff 16 87 lj/cut/coul/long 0.0951 3.47299
pair_coeff 14 87 lj/cut/coul/long 0.0951 3.47299
pair_coeff 5 87 lj/cut/coul/long 0.0951 3.47299
pair_coeff 3 87 lj/cut/coul/long 0.0951 3.47299
pair_coeff 8 87 lj/cut/coul/long 0.0951 3.47299
pair_coeff 6 87 lj/cut/coul/long 0.0951 3.47299
pair_coeff 12 87 lj/cut/coul/long 0.0951 3.47299
pair_coeff 10 87 lj/cut/coul/long 0.0951 3.47299
pair_coeff 15 87 lj/cut/coul/long 0.0951 3.47299
pair_coeff  87  87 lj/cut/coul/long 0.0951 3.47299
pair_coeff 53 87 lj/cut/coul/long 0.0951 3.47299
pair_coeff 13 87 lj/cut/coul/long 0.0951 3.47299
pair_coeff 11 87 lj/cut/coul/long 0.0951 3.47299
pair_coeff 7 87 lj/cut/coul/long 0.0951 3.47299
pair_coeff 9 87 lj/cut/coul/long 0.0951 3.47299
pair_coeff 4 87 lj/cut/coul/long 0.0951 3.47299
pair_coeff 16 53 lj/cut/coul/long 0.0951 3.47299
pair_coeff 14 53 lj/cut/coul/long 0.0951 3.47299
pair_coeff 5 53 lj/cut/coul/long 0.0951 3.47299
pair_coeff 3 53 lj/cut/coul/long 0.0951 3.47299
pair_coeff 8 53 lj/cut/coul/long 0.0951 3.47299
pair_coeff 6 53 lj/cut/coul/long 0.0951 3.47299
pair_coeff 12 53 lj/cut/coul/long 0.0951 3.47299
pair_coeff 10 53 lj/cut/coul/long 0.0951 3.47299
pair_coeff 15 53 lj/cut/coul/long 0.0951 3.47299
pair_coeff  53  87 lj/cut/coul/long 0.0951 3.47299
pair_coeff  53  53 lj/cut/coul/long 0.0951 3.47299
pair_coeff 13 53 lj/cut/coul/long 0.0951 3.47299
pair_coeff 11 53 lj/cut/coul/long 0.0951 3.47299
pair_coeff 7 53 lj/cut/coul/long 0.0951 3.47299
pair_coeff 9 53 lj/cut/coul/long 0.0951 3.47299
pair_coeff 4 53 lj/cut/coul/long 0.0951 3.47299
pair_coeff  13  16 lj/cut/coul/long 0.0951 3.47299
pair_coeff  13  14 lj/cut/coul/long 0.0951 3.47299
pair_coeff 5 13 lj/cut/coul/long 0.0951 3.47299
pair_coeff 3 13 lj/cut/coul/long 0.0951 3.47299
pair_coeff 8 13 lj/cut/coul/long 0.0951 3.47299
pair_coeff 6 13 lj/cut/coul/long 0.0951 3.47299
pair_coeff 12 13 lj/cut/coul/long 0.0951 3.47299
pair_coeff 10 13 lj/cut/coul/long 0.0951 3.47299
pair_coeff  13  15 lj/cut/coul/long 0.0951 3.47299
pair_coeff  13  87 lj/cut/coul/long 0.0951 3.47299
pair_coeff  13  53 lj/cut/coul/long 0.0951 3.47299
pair_coeff  13  13 lj/cut/coul/long 0.0951 3.47299
pair_coeff 11 13 lj/cut/coul/long 0.0951 3.47299
pair_coeff 7 13 lj/cut/coul/long 0.0951 3.47299
pair_coeff 9 13 lj/cut/coul/long 0.0951 3.47299
pair_coeff 4 13 lj/cut/coul/long 0.0951 3.47299
pair_coeff  11  16 lj/cut/coul/long 0.0951 3.47299
pair_coeff  11  14 lj/cut/coul/long 0.0951 3.47299
pair_coeff 5 11 lj/cut/coul/long 0.0951 3.47299
pair_coeff 3 11 lj/cut/coul/long 0.0951 3.47299
pair_coeff 8 11 lj/cut/coul/long 0.0951 3.47299
pair_coeff 6 11 lj/cut/coul/long 0.0951 3.47299
pair_coeff  11  12 lj/cut/coul/long 0.0951 3.47299
pair_coeff 10 11 lj/cut/coul/long 0.0951 3.47299
pair_coeff  11  15 lj/cut/coul/long 0.0951 3.47299
pair_coeff  11  87 lj/cut/coul/long 0.0951 3.47299
pair_coeff  11  53 lj/cut/coul/long 0.0951 3.47299
pair_coeff  11  13 lj/cut/coul/long 0.0951 3.47299
pair_coeff  11  11 lj/cut/coul/long 0.0951 3.47299
pair_coeff 7 11 lj/cut/coul/long 0.0951 3.47299
pair_coeff 9 11 lj/cut/coul/long 0.0951 3.47299
pair_coeff 4 11 lj/cut/coul/long 0.0951 3.47299
pair_coeff  7  16 lj/cut/coul/long 0.0951 3.47299
pair_coeff  7  14 lj/cut/coul/long 0.0951 3.47299
pair_coeff 5 7 lj/cut/coul/long 0.0951 3.47299
pair_coeff 3 7 lj/cut/coul/long 0.0951 3.47299
pair_coeff  7  8 lj/cut/coul/long 0.0951 3.47299
pair_coeff 6 7 lj/cut/coul/long 0.0951 3.47299
pair_coeff  7  12 lj/cut/coul/long 0.0951 3.47299
pair_coeff  7  10 lj/cut/coul/long 0.0951 3.47299
pair_coeff  7  15 lj/cut/coul/long 0.0951 3.47299
pair_coeff  7  87 lj/cut/coul/long 0.0951 3.47299
pair_coeff  7  53 lj/cut/coul/long 0.0951 3.47299
pair_coeff  7  13 lj/cut/coul/long 0.0951 3.47299
pair_coeff  7  11 lj/cut/coul/long 0.0951 3.47299
pair_coeff  7  7 lj/cut/coul/long 0.0951 3.47299
pair_coeff  7  9 lj/cut/coul/long 0.0951 3.47299
pair_coeff 4 7 lj/cut/coul/long 0.0951 3.47299
pair_coeff  9  16 lj/cut/coul/long 0.0951 3.47299
pair_coeff  9  14 lj/cut/coul/long 0.0951 3.47299
pair_coeff 5 9 lj/cut/coul/long 0.0951 3.47299
pair_coeff 3 9 lj/cut/coul/long 0.0951 3.47299
pair_coeff 8 9 lj/cut/coul/long 0.0951 3.47299
pair_coeff 6 9 lj/cut/coul/long 0.0951 3.47299
pair_coeff  9  12 lj/cut/coul/long 0.0951 3.47299
pair_coeff  9  10 lj/cut/coul/long 0.0951 3.47299
pair_coeff  9  15 lj/cut/coul/long 0.0951 3.47299
pair_coeff  9  87 lj/cut/coul/long 0.0951 3.47299
pair_coeff  9  53 lj/cut/coul/long 0.0951 3.47299
pair_coeff  9  13 lj/cut/coul/long 0.0951 3.47299
pair_coeff  9  11 lj/cut/coul/long 0.0951 3.47299
pair_coeff 7 9 lj/cut/coul/long 0.0951 3.47299
pair_coeff  9  9 lj/cut/coul/long 0.0951 3.47299
pair_coeff 4 9 lj/cut/coul/long 0.0951 3.47299
pair_coeff  4  16 lj/cut/coul/long 0.0951 3.47299
pair_coeff  4  14 lj/cut/coul/long 0.0951 3.47299
pair_coeff  4  5 lj/cut/coul/long 0.0951 3.47299
pair_coeff 3 4 lj/cut/coul/long 0.0951 3.47299
pair_coeff  4  8 lj/cut/coul/long 0.0951 3.47299
pair_coeff  4  6 lj/cut/coul/long 0.0951 3.47299
pair_coeff  4  12 lj/cut/coul/long 0.0951 3.47299
pair_coeff  4  10 lj/cut/coul/long 0.0951 3.47299
pair_coeff  4  15 lj/cut/coul/long 0.0951 3.47299
pair_coeff  4  87 lj/cut/coul/long 0.0951 3.47299
pair_coeff  4  53 lj/cut/coul/long 0.0951 3.47299
pair_coeff  4  13 lj/cut/coul/long 0.0951 3.47299
pair_coeff  4  11 lj/cut/coul/long 0.0951 3.47299
pair_coeff  4  7 lj/cut/coul/long 0.0951 3.47299
pair_coeff  4  9 lj/cut/coul/long 0.0951 3.47299
pair_coeff  4  4 lj/cut/coul/long 0.0951 3.47299
pair_coeff 1 96 lj/cut/coul/long 0.03429985 3.0544905
pair_coeff 1 33 lj/cut/coul/long 0.03429985 3.0544905
pair_coeff 1 28 lj/cut/coul/long 0.03429985 3.0544905
pair_coeff 1 97 lj/cut/coul/long 0.03429985 3.0544905
pair_coeff 1 27 lj/cut/coul/long 0.03429985 3.0544905
pair_coeff 1 99 lj/cut/coul/long 0.03429985 3.0544905
pair_coeff 1 32 lj/cut/coul/long 0.03429985 3.0544905
pair_coeff 1 94 lj/cut/coul/long 0.03429985 3.0544905
pair_coeff 1 86 lj/cut/coul/long 0.03429985 3.0544905
pair_coeff 1 100 lj/cut/coul/long 0.03429985 3.0544905
pair_coeff 1 18 lj/cut/coul/long 0.03429985 3.0544905
pair_coeff 1 31 lj/cut/coul/long 0.03429985 3.0544905
pair_coeff 1 21 lj/cut/coul/long 0.03429985 3.0544905
pair_coeff 1 23 lj/cut/coul/long 0.03429985 3.0544905
pair_coeff 1 34 lj/cut/coul/long 0.03429985 3.0544905
pair_coeff 1 98 lj/cut/coul/long 0.03429985 3.0544905
pair_coeff 1 90 lj/cut/coul/long 0.03429985 3.0544905
pair_coeff 1 25 lj/cut/coul/long 0.03429985 3.0544905
pair_coeff 1 30 lj/cut/coul/long 0.03429985 3.0544905
pair_coeff 1 19 lj/cut/coul/long 0.03429985 3.0544905
pair_coeff 1 91 lj/cut/coul/long 0.03429985 3.0544905
pair_coeff 1 93 lj/cut/coul/long 0.03429985 3.0544905
pair_coeff 1 17 lj/cut/coul/long 0.03429985 3.0544905
pair_coeff 1 92 lj/cut/coul/long 0.03429985 3.0544905
pair_coeff 1 29 lj/cut/coul/long 0.03429985 3.0544905
pair_coeff 1 20 lj/cut/coul/long 0.03429985 3.0544905
pair_coeff 1 95 lj/cut/coul/long 0.03429985 3.0544905
pair_coeff 1 22 lj/cut/coul/long 0.03429985 3.0544905
pair_coeff 1 26 lj/cut/coul/long 0.03429985 3.0544905
pair_coeff 1 24 lj/cut/coul/long 0.03429985 3.0544905
pair_coeff 2 96 lj/cut/coul/long 0.00278209 3.0544905
pair_coeff 2 33 lj/cut/coul/long 0.00278209 3.0544905
pair_coeff 2 28 lj/cut/coul/long 0.00278209 3.0544905
pair_coeff 2 97 lj/cut/coul/long 0.00278209 3.0544905
pair_coeff 2 27 lj/cut/coul/long 0.00278209 3.0544905
pair_coeff 2 99 lj/cut/coul/long 0.00278209 3.0544905
pair_coeff 2 32 lj/cut/coul/long 0.00278209 3.0544905
pair_coeff 2 94 lj/cut/coul/long 0.00278209 3.0544905
pair_coeff 2 86 lj/cut/coul/long 0.00278209 3.0544905
pair_coeff 2 100 lj/cut/coul/long 0.00278209 3.0544905
pair_coeff 2 18 lj/cut/coul/long 0.00278209 3.0544905
pair_coeff 2 31 lj/cut/coul/long 0.00278209 3.0544905
pair_coeff 2 21 lj/cut/coul/long 0.00278209 3.0544905
pair_coeff 2 23 lj/cut/coul/long 0.00278209 3.0544905
pair_coeff 2 34 lj/cut/coul/long 0.00278209 3.0544905
pair_coeff 2 98 lj/cut/coul/long 0.00278209 3.0544905
pair_coeff 2 90 lj/cut/coul/long 0.00278209 3.0544905
pair_coeff 2 25 lj/cut/coul/long 0.00278209 3.0544905
pair_coeff 2 30 lj/cut/coul/long 0.00278209 3.0544905
pair_coeff 2 19 lj/cut/coul/long 0.00278209 3.0544905
pair_coeff 2 91 lj/cut/coul/long 0.00278209 3.0544905
pair_coeff 2 93 lj/cut/coul/long 0.00278209 3.0544905
pair_coeff 2 17 lj/cut/coul/long 0.00278209 3.0544905